presolving:
(round 1, fast)       500 del vars, 500 del conss, 0 add conss, 18750 chg bounds, 1 chg sides, 0 chg coeffs, 0 upgd conss, 0 impls, 203 clqs
(round 2, fast)       500 del vars, 500 del conss, 0 add conss, 37500 chg bounds, 1 chg sides, 0 chg coeffs, 0 upgd conss, 18750 impls, 203 clqs
   (0.3s) running MILP presolver
   (0.3s) MILP presolver found nothing
(round 3, exhaustive) 500 del vars, 500 del conss, 0 add conss, 37500 chg bounds, 1 chg sides, 0 chg coeffs, 204 upgd conss, 18750 impls, 203 clqs
   (0.6s) probing: 105/250 (42.0%) - 0 fixings, 0 aggregations, 6300 implications, 0 bound changes
   (0.6s) probing aborted: 50/50 successive totally useless probings
   (0.6s) symmetry computation started: requiring (bin +, int -, cont +), (fixed: bin -, int +, cont -)
   (0.7s) no symmetry present
presolving (4 rounds: 4 fast, 2 medium, 2 exhaustive):
 500 deleted vars, 500 deleted constraints, 0 added constraints, 37500 tightened bounds, 0 added holes, 1 changed sides, 0 changed coefficients
 25050 implications, 203 cliques
presolved problem has 19000 variables (250 bin, 0 int, 0 impl, 18750 cont) and 529 constraints
      1 constraints of type <knapsack>
    203 constraints of type <setppc>
    325 constraints of type <linear>
Presolving Time: 0.58

 time | node  | left  |LP iter|LP it/n|mem/heur|mdpt |vars |cons |rows |cuts |sepa|confs|strbr|  dualbound   | primalbound  |  gap   | compl. 
p 0.8s|     1 |     0 |   184 |     - |  clique|   0 |  19k| 529 | 529 |   0 |  0 |   0 |   0 | 0.000000e+00 | 7.254225e+04 |    Inf | unknown
  1.0s|     1 |     0 |   624 |     - |   120M |   0 |  19k| 529 | 529 |   0 |  0 |   0 |   0 | 3.090642e+04 | 7.254225e+04 | 134.72%| unknown
  1.3s|     1 |     0 |   878 |     - |   125M |   0 |  19k| 529 | 587 |  58 |  1 |   0 |   0 | 3.613043e+04 | 7.254225e+04 | 100.78%| unknown
  1.5s|     1 |     0 |  1069 |     - |   128M |   0 |  19k| 529 | 651 | 122 |  2 |   0 |   0 | 3.938084e+04 | 7.254225e+04 |  84.21%| unknown
  2.0s|     1 |     0 |  1282 |     - |   130M |   0 |  19k| 529 | 703 | 174 |  3 |   0 |   0 | 4.117436e+04 | 7.254225e+04 |  76.18%| unknown
  2.4s|     1 |     0 |  1653 |     - |   132M |   0 |  19k| 529 | 746 | 217 |  4 |   0 |   0 | 4.249982e+04 | 7.254225e+04 |  70.69%| unknown
  2.9s|     1 |     0 |  2035 |     - |   134M |   0 |  19k| 529 | 776 | 247 |  5 |   0 |   0 | 4.375293e+04 | 7.254225e+04 |  65.80%| unknown
  3.5s|     1 |     0 |  2537 |     - |   136M |   0 |  19k| 529 | 814 | 285 |  6 |   0 |   0 | 4.477835e+04 | 7.254225e+04 |  62.00%| unknown
  4.1s|     1 |     0 |  2929 |     - |   139M |   0 |  19k| 529 | 841 | 312 |  7 |   0 |   0 | 4.543963e+04 | 7.254225e+04 |  59.65%| unknown
  4.6s|     1 |     0 |  3281 |     - |   141M |   0 |  19k| 529 | 878 | 349 |  8 |   0 |   0 | 4.587075e+04 | 7.254225e+04 |  58.14%| unknown
  5.2s|     1 |     0 |  3801 |     - |   144M |   0 |  19k| 529 | 913 | 384 |  9 |   0 |   0 | 4.633509e+04 | 7.254225e+04 |  56.56%| unknown
  5.9s|     1 |     0 |  4135 |     - |   147M |   0 |  19k| 529 | 934 | 405 | 10 |   0 |   0 | 4.655697e+04 | 7.254225e+04 |  55.81%| unknown
  6.6s|     1 |     0 |  4381 |     - |   147M |   0 |  19k| 529 | 957 | 428 | 11 |   0 |   0 | 4.672838e+04 | 7.254225e+04 |  55.24%| unknown
  7.2s|     1 |     0 |  4682 |     - |   149M |   0 |  19k| 529 | 978 | 449 | 12 |   0 |   0 | 4.689298e+04 | 7.254225e+04 |  54.70%| unknown
r 7.2s|     1 |     0 |  4682 |     - |shifting|   0 |  19k| 529 | 978 | 449 | 12 |   0 |   0 | 4.689298e+04 | 7.225568e+04 |  54.09%| unknown
 time | node  | left  |LP iter|LP it/n|mem/heur|mdpt |vars |cons |rows |cuts |sepa|confs|strbr|  dualbound   | primalbound  |  gap   | compl. 
  7.7s|     1 |     0 |  4875 |     - |   151M |   0 |  19k| 529 | 991 | 462 | 13 |   0 |   0 | 4.696081e+04 | 7.225568e+04 |  53.86%| unknown
r 7.7s|     1 |     0 |  4875 |     - |shifting|   0 |  19k| 529 | 991 | 462 | 13 |   0 |   0 | 4.696081e+04 | 7.119506e+04 |  51.61%| unknown
  8.1s|     1 |     0 |  5108 |     - |   152M |   0 |  19k| 529 | 997 | 468 | 14 |   0 |   0 | 4.703894e+04 | 7.119506e+04 |  51.35%| unknown
r 8.2s|     1 |     0 |  5108 |     - |shifting|   0 |  19k| 529 | 997 | 468 | 14 |   0 |   0 | 4.703894e+04 | 7.113348e+04 |  51.22%| unknown
  8.7s|     1 |     0 |  5320 |     - |   153M |   0 |  19k| 529 |1012 | 483 | 15 |   0 |   0 | 4.712437e+04 | 7.113348e+04 |  50.95%| unknown
  9.3s|     1 |     0 |  5555 |     - |   153M |   0 |  19k| 529 |1021 | 502 | 16 |   0 |   0 | 4.723542e+04 | 7.113348e+04 |  50.59%| unknown
  9.9s|     1 |     0 |  5662 |     - |   153M |   0 |  19k| 529 |1028 | 509 | 17 |   0 |   0 | 4.724784e+04 | 7.113348e+04 |  50.55%| unknown
r 9.9s|     1 |     0 |  5662 |     - |shifting|   0 |  19k| 529 |1028 | 509 | 17 |   0 |   0 | 4.724784e+04 | 7.062528e+04 |  49.48%| unknown
 10.4s|     1 |     0 |  5803 |     - |   153M |   0 |  19k| 529 |1038 | 519 | 18 |   0 |   0 | 4.726617e+04 | 7.062528e+04 |  49.42%| unknown
 10.9s|     1 |     0 |  5914 |     - |   155M |   0 |  19k| 529 |1044 | 525 | 19 |   0 |   0 | 4.727852e+04 | 7.062528e+04 |  49.38%| unknown
 11.2s|     1 |     0 |  6035 |     - |   157M |   0 |  19k| 529 |1052 | 533 | 20 |   0 |   0 | 4.731089e+04 | 7.062528e+04 |  49.28%| unknown
 11.6s|     1 |     0 |  6117 |     - |   161M |   0 |  19k| 529 |1059 | 540 | 21 |   0 |   0 | 4.732488e+04 | 7.062528e+04 |  49.24%| unknown
 11.9s|     1 |     0 |  6183 |     - |   161M |   0 |  19k| 529 |1052 | 547 | 22 |   0 |   0 | 4.733915e+04 | 7.062528e+04 |  49.19%| unknown
r11.9s|     1 |     0 |  6183 |     - |shifting|   0 |  19k| 529 |1052 | 547 | 22 |   0 |   0 | 4.733915e+04 | 6.687179e+04 |  41.26%| unknown
 12.2s|     1 |     0 |  6253 |     - |   161M |   0 |  19k| 529 |1056 | 551 | 23 |   0 |   0 | 4.734637e+04 | 6.687179e+04 |  41.24%| unknown
 time | node  | left  |LP iter|LP it/n|mem/heur|mdpt |vars |cons |rows |cuts |sepa|confs|strbr|  dualbound   | primalbound  |  gap   | compl. 
r12.3s|     1 |     0 |  6253 |     - |shifting|   0 |  19k| 529 |1056 | 551 | 23 |   0 |   0 | 4.734637e+04 | 6.677335e+04 |  41.03%| unknown
 12.6s|     1 |     0 |  6342 |     - |   161M |   0 |  19k| 529 |1061 | 556 | 24 |   0 |   0 | 4.736063e+04 | 6.677335e+04 |  40.99%| unknown
 13.2s|     1 |     0 |  6384 |     - |   161M |   0 |  19k| 529 |1074 | 569 | 25 |   0 |   0 | 4.736605e+04 | 6.677335e+04 |  40.97%| unknown
 13.7s|     1 |     0 |  6438 |     - |   161M |   0 |  19k| 529 |1085 | 580 | 26 |   0 |   0 | 4.736946e+04 | 6.677335e+04 |  40.96%| unknown
r13.7s|     1 |     0 |  6438 |     - |shifting|   0 |  19k| 529 |1085 | 580 | 26 |   0 |   0 | 4.736946e+04 | 6.643010e+04 |  40.24%| unknown
 14.3s|     1 |     0 |  6467 |     - |   161M |   0 |  19k| 529 |1091 | 586 | 27 |   0 |   0 | 4.737088e+04 | 6.643010e+04 |  40.23%| unknown
 14.9s|     1 |     0 |  6500 |     - |   161M |   0 |  19k| 529 |1064 | 594 | 28 |   0 |   0 | 4.737165e+04 | 6.643010e+04 |  40.23%| unknown
r14.9s|     1 |     0 |  6500 |     - |shifting|   0 |  19k| 529 |1064 | 594 | 28 |   0 |   0 | 4.737165e+04 | 6.560308e+04 |  38.49%| unknown
 15.1s|     1 |     0 |  6536 |     - |   162M |   0 |  19k| 529 |1066 | 596 | 30 |   0 |   0 | 4.737461e+04 | 6.560308e+04 |  38.48%| unknown
 15.3s|     1 |     0 |  6550 |     - |   162M |   0 |  19k| 529 |1071 | 601 | 31 |   0 |   0 | 4.737532e+04 | 6.560308e+04 |  38.48%| unknown
 15.6s|     1 |     0 |  6558 |     - |   162M |   0 |  19k| 529 |1075 | 605 | 32 |   0 |   0 | 4.737552e+04 | 6.560308e+04 |  38.47%| unknown
r15.8s|     1 |     0 |  7357 |     - |intshift|   0 |  19k| 529 |1075 | 605 | 32 |   0 |   0 | 4.737552e+04 | 5.846013e+04 |  23.40%| unknown
L18.8s|     1 |     0 | 10520 |     - |    rens|   0 |  19k| 529 |1075 | 605 | 32 |   0 |   0 | 4.737552e+04 | 4.747846e+04 |   0.22%| unknown
 19.2s|     1 |     0 | 10520 |     - |   165M |   0 |  19k| 529 |1075 | 605 | 32 |   0 |   0 | 4.737552e+04 | 4.747846e+04 |   0.22%| unknown
 19.3s|     1 |     0 | 10520 |     - |   165M |   0 |  19k| 529 |1054 | 605 | 32 |   0 |   0 | 4.737552e+04 | 4.747846e+04 |   0.22%| unknown
 time | node  | left  |LP iter|LP it/n|mem/heur|mdpt |vars |cons |rows |cuts |sepa|confs|strbr|  dualbound   | primalbound  |  gap   | compl. 
 19.4s|     1 |     0 | 10525 |     - |   165M |   0 |  19k| 508 |1053 | 606 | 33 |   0 |   0 | 4.737562e+04 | 4.747846e+04 |   0.22%| unknown
 19.5s|     1 |     0 | 10525 |     - |   165M |   0 |  19k| 475 |1053 | 606 | 34 |   0 |   0 | 4.737562e+04 | 4.747846e+04 |   0.22%| unknown
 19.9s|     1 |     0 | 10567 |     - |   165M |   0 |  19k| 475 |1056 | 609 | 35 |   0 |   0 | 4.737693e+04 | 4.747846e+04 |   0.21%| unknown
 20.0s|     1 |     0 | 10596 |     - |   165M |   0 |  19k| 475 |1062 | 615 | 36 |   0 |   0 | 4.737803e+04 | 4.747846e+04 |   0.21%| unknown
(run 1, node 1) restarting after 27 global fixings of integer variables

(restart) converted 556 cuts from the global cut pool into linear constraints

presolving:
(round 1, fast)       2052 del vars, 2 del conss, 0 add conss, 0 chg bounds, 0 chg sides, 0 chg coeffs, 0 upgd conss, 25050 impls, 176 clqs
(round 2, exhaustive) 2052 del vars, 2 del conss, 0 add conss, 0 chg bounds, 0 chg sides, 0 chg coeffs, 499 upgd conss, 25050 impls, 176 clqs
presolving (3 rounds: 3 fast, 2 medium, 2 exhaustive):
 2052 deleted vars, 2 deleted constraints, 0 added constraints, 0 tightened bounds, 0 added holes, 0 changed sides, 0 changed coefficients
 25050 implications, 176 cliques
presolved problem has 16948 variables (223 bin, 0 int, 0 impl, 16725 cont) and 1029 constraints
    499 constraints of type <varbound>
      1 constraints of type <knapsack>
    176 constraints of type <setppc>
    353 constraints of type <linear>
Presolving Time: 0.73
transformed 13/15 original solutions to the transformed problem space

 time | node  | left  |LP iter|LP it/n|mem/heur|mdpt |vars |cons |rows |cuts |sepa|confs|strbr|  dualbound   | primalbound  |  gap   | compl. 
 21.4s|     1 |     0 | 13468 |     - |   154M |   0 |  16k|1029 |1029 |   0 |  0 |   0 |   0 | 4.737803e+04 | 4.747846e+04 |   0.21%| unknown
 21.4s|     1 |     0 | 13468 |     - |   155M |   0 |  16k|1029 | 974 |   0 |  0 |   0 |   0 | 4.737803e+04 | 4.747846e+04 |   0.21%| unknown
 21.8s|     1 |     0 | 13474 |     - |   156M |   0 |  16k| 974 | 958 |   3 |  1 |   0 |   0 | 4.737821e+04 | 4.747846e+04 |   0.21%| unknown
 21.8s|     1 |     0 | 13474 |     - |   156M |   0 |  16k| 974 | 958 |   3 |  1 |   0 |   0 | 4.737821e+04 | 4.747846e+04 |   0.21%| unknown
 22.2s|     1 |     0 | 13475 |     - |   156M |   0 |  16k| 958 | 955 |   4 |  2 |   0 |   0 | 4.737824e+04 | 4.747846e+04 |   0.21%| unknown
 22.4s|     1 |     0 | 13475 |     - |   156M |   0 |  16k| 691 | 955 |   4 |  4 |   0 |   0 | 4.737824e+04 | 4.747846e+04 |   0.21%| unknown
 22.8s|     1 |     0 | 13488 |     - |   156M |   0 |  16k| 691 | 958 |   7 |  5 |   0 |   0 | 4.737866e+04 | 4.747846e+04 |   0.21%| unknown
(run 2, node 1) restarting after 92 global fixings of integer variables

(restart) converted 7 cuts from the global cut pool into linear constraints

presolving:
(round 1, fast)       6917 del vars, 5 del conss, 0 add conss, 0 chg bounds, 10 chg sides, 10 chg coeffs, 0 upgd conss, 25050 impls, 83 clqs
   (23.7s) running MILP presolver
   (23.7s) MILP presolver found nothing
(round 2, exhaustive) 6917 del vars, 5 del conss, 0 add conss, 0 chg bounds, 10 chg sides, 10 chg coeffs, 4 upgd conss, 25050 impls, 83 clqs
presolving (3 rounds: 3 fast, 2 medium, 2 exhaustive):
 6917 deleted vars, 5 deleted constraints, 0 added constraints, 0 tightened bounds, 0 added holes, 10 changed sides, 10 changed coefficients
 25050 implications, 83 cliques
presolved problem has 10031 variables (131 bin, 0 int, 0 impl, 9900 cont) and 694 constraints
    356 constraints of type <varbound>
      1 constraints of type <knapsack>
     83 constraints of type <setppc>
    253 constraints of type <linear>
      1 constraints of type <logicor>
Presolving Time: 0.89
transformed 8/17 original solutions to the transformed problem space

 time | node  | left  |LP iter|LP it/n|mem/heur|mdpt |vars |cons |rows |cuts |sepa|confs|strbr|  dualbound   | primalbound  |  gap   | compl. 
 24.1s|     1 |     0 | 15094 |     - |   159M |   0 |  10k| 694 | 693 |   0 |  0 |9264 |   0 | 4.737898e+04 | 4.747846e+04 |   0.21%| unknown
 24.2s|     1 |     0 | 15094 |     - |   159M |   0 |  10k| 694 | 676 |   0 |  0 |9264 |   0 | 4.737898e+04 | 4.747846e+04 |   0.21%| unknown
 24.4s|     1 |     0 | 15121 |     - |   160M |   0 |  10k| 677 | 673 |   9 |  1 |9264 |   0 | 4.738928e+04 | 4.747846e+04 |   0.19%| unknown
 24.4s|     1 |     0 | 15121 |     - |   160M |   0 |  10k| 677 | 671 |   9 |  1 |9264 |   0 | 4.738928e+04 | 4.747846e+04 |   0.19%| unknown
 24.7s|     1 |     0 | 15154 |     - |   160M |   0 |  10k| 667 | 679 |  21 |  2 |9264 |   0 | 4.739952e+04 | 4.747846e+04 |   0.17%| unknown
 24.7s|     1 |     0 | 15154 |     - |   160M |   0 |  10k| 667 | 678 |  21 |  2 |9264 |   0 | 4.739952e+04 | 4.747846e+04 |   0.17%| unknown
 25.0s|     1 |     0 | 15177 |     - |   160M |   0 |  10k| 667 | 685 |  28 |  3 |9264 |   0 | 4.740180e+04 | 4.747846e+04 |   0.16%| unknown
 25.0s|     1 |     0 | 15177 |     - |   160M |   0 |  10k| 667 | 685 |  28 |  3 |9264 |   0 | 4.740180e+04 | 4.747846e+04 |   0.16%| unknown
 25.3s|     1 |     0 | 15237 |     - |   161M |   0 |  10k| 667 | 692 |  35 |  4 |9264 |   0 | 4.741787e+04 | 4.747846e+04 |   0.13%| unknown
 25.3s|     1 |     0 | 15237 |     - |   161M |   0 |  10k| 667 | 692 |  35 |  4 |9264 |   0 | 4.741787e+04 | 4.747846e+04 |   0.13%| unknown
 25.7s|     1 |     0 | 15324 |     - |   161M |   0 |  10k| 667 | 710 |  53 |  5 |9264 |   0 | 4.743190e+04 | 4.747846e+04 |   0.10%| unknown
 25.7s|     1 |     0 | 15324 |     - |   161M |   0 |  10k| 667 | 710 |  53 |  5 |9264 |   0 | 4.743190e+04 | 4.747846e+04 |   0.10%| unknown
 26.0s|     1 |     0 | 15362 |     - |   161M |   0 |  10k| 667 | 720 |  63 |  6 |9264 |   0 | 4.743337e+04 | 4.747846e+04 |   0.10%| unknown
 26.3s|     1 |     0 | 15376 |     - |   161M |   0 |  10k| 667 | 728 |  71 |  7 |9264 |   0 | 4.743455e+04 | 4.747846e+04 |   0.09%| unknown
 26.6s|     1 |     0 | 15393 |     - |   161M |   0 |  10k| 667 | 729 |  72 |  8 |9264 |   0 | 4.743910e+04 | 4.747846e+04 |   0.08%| unknown
 time | node  | left  |LP iter|LP it/n|mem/heur|mdpt |vars |cons |rows |cuts |sepa|confs|strbr|  dualbound   | primalbound  |  gap   | compl. 
 26.7s|     1 |     0 | 15393 |     - |   161M |   0 |  10k| 667 | 724 |  72 |  8 |9264 |   0 | 4.743910e+04 | 4.747846e+04 |   0.08%| unknown
 26.9s|     1 |     0 | 15393 |     - |   161M |   0 |  10k| 665 | 724 |  72 |  9 |9264 |   0 | 4.743910e+04 | 4.747846e+04 |   0.08%| unknown
 27.0s|     1 |     0 | 15393 |     - |   161M |   0 |  10k| 514 | 724 |  72 | 11 |9264 |   0 | 4.743910e+04 | 4.747846e+04 |   0.08%| unknown
(run 3, node 1) restarting after 47 global fixings of integer variables

(restart) converted 72 cuts from the global cut pool into linear constraints

presolving:
(round 1, fast)       3497 del vars, 7 del conss, 0 add conss, 0 chg bounds, 40 chg sides, 40 chg coeffs, 0 upgd conss, 25050 impls, 46 clqs
   (27.6s) running MILP presolver
   (27.6s) MILP presolver found nothing
(round 2, exhaustive) 3497 del vars, 10 del conss, 0 add conss, 0 chg bounds, 41 chg sides, 40 chg coeffs, 0 upgd conss, 25050 impls, 46 clqs
(round 3, exhaustive) 3497 del vars, 10 del conss, 0 add conss, 0 chg bounds, 41 chg sides, 40 chg coeffs, 35 upgd conss, 25050 impls, 46 clqs
presolving (4 rounds: 4 fast, 3 medium, 3 exhaustive):
 3497 deleted vars, 10 deleted constraints, 0 added constraints, 0 tightened bounds, 0 added holes, 41 changed sides, 40 changed coefficients
 25050 implications, 46 cliques
presolved problem has 6534 variables (84 bin, 0 int, 0 impl, 6450 cont) and 577 constraints
    292 constraints of type <varbound>
      1 constraints of type <knapsack>
     46 constraints of type <setppc>
    236 constraints of type <linear>
      2 constraints of type <logicor>
Presolving Time: 1.03
transformed 3/19 original solutions to the transformed problem space

 time | node  | left  |LP iter|LP it/n|mem/heur|mdpt |vars |cons |rows |cuts |sepa|confs|strbr|  dualbound   | primalbound  |  gap   | compl. 
 28.0s|     1 |     0 | 17144 |     - |   163M |   0 |6534 | 577 | 575 |   0 |  0 |  15k|   0 | 4.745176e+04 | 4.747846e+04 |   0.06%| unknown
 28.0s|     1 |     0 | 17144 |     - |   163M |   0 |6534 | 577 | 565 |   0 |  0 |  15k|   0 | 4.745176e+04 | 4.747846e+04 |   0.06%| unknown
 28.2s|     1 |     0 | 17153 |     - |   164M |   0 |6534 | 568 | 558 |   2 |  1 |  15k|   0 | 4.745872e+04 | 4.747846e+04 |   0.04%| unknown
 28.2s|     1 |     0 | 17153 |     - |   164M |   0 |6534 | 568 | 558 |   2 |  1 |  15k|   0 | 4.745872e+04 | 4.747846e+04 |   0.04%| unknown
 28.3s|     1 |     0 | 17155 |     - |   164M |   0 |6534 | 564 | 558 |   3 |  2 |  15k|   0 | 4.745928e+04 | 4.747846e+04 |   0.04%| unknown
 28.4s|     1 |     0 | 17155 |     - |   164M |   0 |6534 | 501 | 558 |   3 |  4 |  15k|   0 | 4.745928e+04 | 4.747846e+04 |   0.04%| unknown
 28.6s|     1 |     0 | 17239 |     - |   164M |   0 |6534 | 504 | 558 |   3 |  6 |  15k|   0 | 4.747846e+04 | 4.747846e+04 |   0.00%| unknown

SCIP Status        : problem is solved [optimal solution found]
Solving Time (sec) : 28.60
Solving Nodes      : 1 (total of 4 nodes in 4 runs)
Primal Bound       : +4.74784565700172e+04 (20 solutions)
Dual Bound         : +4.74784565700172e+04
Gap                : 0.00 %
Solve Status: optimal
Solve Time: 28.61 seconds
